db/data/27569240085791897517663316801443710976.z3.out
-------------------
2500.239035958
